c Result of efficient AIG-to-CNF conversion using package CNF
p cnf 40 124
2 3 16 -19 -22 0
-2 -3 0
-2 22 0
-2 19 0
-2 -16 0
3 -33 -12 0
3 -4 -9 -12 0
-3 12 0
-3 33 4 0
-3 33 9 0
4 -34 -5 -8 0
4 -35 -5 -8 0
-4 8 0
-4 5 0
-4 34 35 0
-5 6 7 0
-5 37 6 0
5 -6 0
5 -37 -7 0
6 -38 -39 0
-6 38 0
-6 39 0
-7 38 39 0
7 -38 0
7 -39 0
8 -36 0
8 -37 -6 0
-8 36 6 0
-8 36 37 0
-9 10 11 0
9 -10 0
9 -11 0
10 -34 -35 0
-10 34 0
-10 35 0
11 -36 -37 -6 0
-11 36 0
-11 37 0
-11 6 0
-12 15 0
-12 4 13 0
12 -13 -15 0
12 -4 -15 0
13 -9 -14 0
13 -5 -9 0
-13 9 0
-13 5 14 0
-14 36 0
-14 37 7 0
14 -36 -37 0
14 -36 -7 0
15 -31 -32 0
-15 31 0
-15 32 0
-16 17 0
-16 11 18 0
-16 10 18 0
16 -17 -18 0
16 -10 -11 -17 0
-17 31 32 0
17 -31 0
17 -32 0
18 -33 -4 -11 0
18 -33 -4 -10 0
-18 33 0
-18 4 0
-18 10 11 0
19 -33 10 0
19 33 -20 0
19 -33 11 0
-19 33 20 0
-19 -33 -10 -11 0
-20 34 35 21 0
20 -21 0
20 -35 0
20 -34 0
-21 36 37 7 0
21 -7 0
21 -37 0
21 -36 0
22 -15 -23 0
22 -20 -23 -30 0
-22 23 0
-22 15 20 0
-22 15 30 0
-23 17 24 27 0
-23 17 26 27 0
23 -17 0
23 -27 0
23 -24 -26 0
-24 35 25 0
-24 5 14 25 0
24 -25 0
24 -35 -5 0
24 -35 -14 0
25 -34 0
25 -5 -8 0
-25 34 5 0
-25 34 8 0
26 -5 -21 0
26 -35 -21 0
26 -14 -21 0
-26 21 0
-26 35 5 14 0
27 -33 -28 -29 0
-27 33 0
-27 29 0
-27 28 0
-28 34 35 5 14 0
28 -34 0
28 -14 0
28 -5 0
28 -35 0
-29 36 37 7 10 0
29 -36 0
29 -10 0
29 -7 0
29 -37 0
30 -33 0
30 -28 -29 0
-30 33 28 0
-30 33 29 0
-40 0
2 0

